(set-logic ALL)
(declare-fun lift_f$ (Int) Int)
(assert (forall ((lift_n$ Int)) (=> (>= lift_n$ 0) (=> (> lift_n$ 3) (and (>= (lift_f$ lift_n$) 0) (> (lift_f$ lift_n$) lift_n$))))))
(assert true)
(check-sat)
